% demand
num_movements = 23;
loading_factor = [1000, 1650, 1400, 1900, 1050, 1400, 1200, 1150, 1300, 1400, 2000, 900, 1300, 1900, 800, 1950, 1500, 850, 1050, 1000, 1500, 1600, 900];
pickup_time = [0, 0, 0, 0, 0, 2, 2, 2, 2, 5, 5, 6, 6, 7, 7, 7, 7, 7, 9, 9, 10, 10, 10];
delivery_time = [2, 2, 2, 1, 2, 7, 3, 3, 4, 7, 7, 7, 7, 9, 9, 11, 10, 9, 11, 10, 11, 11, 11];

% transporter definition
total_capacity = 7000;
num_decks = 3;
capacity = [3000, 1000, 3000];

% ways out of decks
num_ways_out = 1;
paths_out = array3d(decks, ways_out, decks, [
% ways out of deck d1
2, 3, 0, 

% ways out of deck d2
3, 0, 0, 

% ways out of deck d3
0, 0, 0,	

]);

